(declare-const board_0_0 Int)
(assert (>= board_0_0 1))
(assert (<= board_0_0 9))
(declare-const board_0_1 Int)
(assert (>= board_0_1 1))
(assert (<= board_0_1 9))
(declare-const board_0_2 Int)
(assert (>= board_0_2 1))
(assert (<= board_0_2 9))
(declare-const board_0_3 Int)
(assert (>= board_0_3 1))
(assert (<= board_0_3 9))
(declare-const board_0_4 Int)
(assert (>= board_0_4 1))
(assert (<= board_0_4 9))
(declare-const board_0_5 Int)
(assert (>= board_0_5 1))
(assert (<= board_0_5 9))
(declare-const board_0_6 Int)
(assert (>= board_0_6 1))
(assert (<= board_0_6 9))
(declare-const board_0_7 Int)
(assert (>= board_0_7 1))
(assert (<= board_0_7 9))
(declare-const board_0_8 Int)
(assert (>= board_0_8 1))
(assert (<= board_0_8 9))
(declare-const board_1_0 Int)
(assert (>= board_1_0 1))
(assert (<= board_1_0 9))
(declare-const board_1_1 Int)
(assert (>= board_1_1 1))
(assert (<= board_1_1 9))
(declare-const board_1_2 Int)
(assert (>= board_1_2 1))
(assert (<= board_1_2 9))
(declare-const board_1_3 Int)
(assert (>= board_1_3 1))
(assert (<= board_1_3 9))
(declare-const board_1_4 Int)
(assert (>= board_1_4 1))
(assert (<= board_1_4 9))
(declare-const board_1_5 Int)
(assert (>= board_1_5 1))
(assert (<= board_1_5 9))
(declare-const board_1_6 Int)
(assert (>= board_1_6 1))
(assert (<= board_1_6 9))
(declare-const board_1_7 Int)
(assert (>= board_1_7 1))
(assert (<= board_1_7 9))
(declare-const board_1_8 Int)
(assert (>= board_1_8 1))
(assert (<= board_1_8 9))
(declare-const board_2_0 Int)
(assert (>= board_2_0 1))
(assert (<= board_2_0 9))
(declare-const board_2_1 Int)
(assert (>= board_2_1 1))
(assert (<= board_2_1 9))
(declare-const board_2_2 Int)
(assert (>= board_2_2 1))
(assert (<= board_2_2 9))
(declare-const board_2_3 Int)
(assert (>= board_2_3 1))
(assert (<= board_2_3 9))
(declare-const board_2_4 Int)
(assert (>= board_2_4 1))
(assert (<= board_2_4 9))
(declare-const board_2_5 Int)
(assert (>= board_2_5 1))
(assert (<= board_2_5 9))
(declare-const board_2_6 Int)
(assert (>= board_2_6 1))
(assert (<= board_2_6 9))
(declare-const board_2_7 Int)
(assert (>= board_2_7 1))
(assert (<= board_2_7 9))
(declare-const board_2_8 Int)
(assert (>= board_2_8 1))
(assert (<= board_2_8 9))
(declare-const board_3_0 Int)
(assert (>= board_3_0 1))
(assert (<= board_3_0 9))
(declare-const board_3_1 Int)
(assert (>= board_3_1 1))
(assert (<= board_3_1 9))
(declare-const board_3_2 Int)
(assert (>= board_3_2 1))
(assert (<= board_3_2 9))
(declare-const board_3_3 Int)
(assert (>= board_3_3 1))
(assert (<= board_3_3 9))
(declare-const board_3_4 Int)
(assert (>= board_3_4 1))
(assert (<= board_3_4 9))
(declare-const board_3_5 Int)
(assert (>= board_3_5 1))
(assert (<= board_3_5 9))
(declare-const board_3_6 Int)
(assert (>= board_3_6 1))
(assert (<= board_3_6 9))
(declare-const board_3_7 Int)
(assert (>= board_3_7 1))
(assert (<= board_3_7 9))
(declare-const board_3_8 Int)
(assert (>= board_3_8 1))
(assert (<= board_3_8 9))
(declare-const board_4_0 Int)
(assert (>= board_4_0 1))
(assert (<= board_4_0 9))
(declare-const board_4_1 Int)
(assert (>= board_4_1 1))
(assert (<= board_4_1 9))
(declare-const board_4_2 Int)
(assert (>= board_4_2 1))
(assert (<= board_4_2 9))
(declare-const board_4_3 Int)
(assert (>= board_4_3 1))
(assert (<= board_4_3 9))
(declare-const board_4_4 Int)
(assert (>= board_4_4 1))
(assert (<= board_4_4 9))
(declare-const board_4_5 Int)
(assert (>= board_4_5 1))
(assert (<= board_4_5 9))
(declare-const board_4_6 Int)
(assert (>= board_4_6 1))
(assert (<= board_4_6 9))
(declare-const board_4_7 Int)
(assert (>= board_4_7 1))
(assert (<= board_4_7 9))
(declare-const board_4_8 Int)
(assert (>= board_4_8 1))
(assert (<= board_4_8 9))
(declare-const board_5_0 Int)
(assert (>= board_5_0 1))
(assert (<= board_5_0 9))
(declare-const board_5_1 Int)
(assert (>= board_5_1 1))
(assert (<= board_5_1 9))
(declare-const board_5_2 Int)
(assert (>= board_5_2 1))
(assert (<= board_5_2 9))
(declare-const board_5_3 Int)
(assert (>= board_5_3 1))
(assert (<= board_5_3 9))
(declare-const board_5_4 Int)
(assert (>= board_5_4 1))
(assert (<= board_5_4 9))
(declare-const board_5_5 Int)
(assert (>= board_5_5 1))
(assert (<= board_5_5 9))
(declare-const board_5_6 Int)
(assert (>= board_5_6 1))
(assert (<= board_5_6 9))
(declare-const board_5_7 Int)
(assert (>= board_5_7 1))
(assert (<= board_5_7 9))
(declare-const board_5_8 Int)
(assert (>= board_5_8 1))
(assert (<= board_5_8 9))
(declare-const board_6_0 Int)
(assert (>= board_6_0 1))
(assert (<= board_6_0 9))
(declare-const board_6_1 Int)
(assert (>= board_6_1 1))
(assert (<= board_6_1 9))
(declare-const board_6_2 Int)
(assert (>= board_6_2 1))
(assert (<= board_6_2 9))
(declare-const board_6_3 Int)
(assert (>= board_6_3 1))
(assert (<= board_6_3 9))
(declare-const board_6_4 Int)
(assert (>= board_6_4 1))
(assert (<= board_6_4 9))
(declare-const board_6_5 Int)
(assert (>= board_6_5 1))
(assert (<= board_6_5 9))
(declare-const board_6_6 Int)
(assert (>= board_6_6 1))
(assert (<= board_6_6 9))
(declare-const board_6_7 Int)
(assert (>= board_6_7 1))
(assert (<= board_6_7 9))
(declare-const board_6_8 Int)
(assert (>= board_6_8 1))
(assert (<= board_6_8 9))
(declare-const board_7_0 Int)
(assert (>= board_7_0 1))
(assert (<= board_7_0 9))
(declare-const board_7_1 Int)
(assert (>= board_7_1 1))
(assert (<= board_7_1 9))
(declare-const board_7_2 Int)
(assert (>= board_7_2 1))
(assert (<= board_7_2 9))
(declare-const board_7_3 Int)
(assert (>= board_7_3 1))
(assert (<= board_7_3 9))
(declare-const board_7_4 Int)
(assert (>= board_7_4 1))
(assert (<= board_7_4 9))
(declare-const board_7_5 Int)
(assert (>= board_7_5 1))
(assert (<= board_7_5 9))
(declare-const board_7_6 Int)
(assert (>= board_7_6 1))
(assert (<= board_7_6 9))
(declare-const board_7_7 Int)
(assert (>= board_7_7 1))
(assert (<= board_7_7 9))
(declare-const board_7_8 Int)
(assert (>= board_7_8 1))
(assert (<= board_7_8 9))
(declare-const board_8_0 Int)
(assert (>= board_8_0 1))
(assert (<= board_8_0 9))
(declare-const board_8_1 Int)
(assert (>= board_8_1 1))
(assert (<= board_8_1 9))
(declare-const board_8_2 Int)
(assert (>= board_8_2 1))
(assert (<= board_8_2 9))
(declare-const board_8_3 Int)
(assert (>= board_8_3 1))
(assert (<= board_8_3 9))
(declare-const board_8_4 Int)
(assert (>= board_8_4 1))
(assert (<= board_8_4 9))
(declare-const board_8_5 Int)
(assert (>= board_8_5 1))
(assert (<= board_8_5 9))
(declare-const board_8_6 Int)
(assert (>= board_8_6 1))
(assert (<= board_8_6 9))
(declare-const board_8_7 Int)
(assert (>= board_8_7 1))
(assert (<= board_8_7 9))
(declare-const board_8_8 Int)
(assert (>= board_8_8 1))
(assert (<= board_8_8 9))
(assert (distinct board_0_0 board_0_1 board_0_2 board_0_3 board_0_4 board_0_5 board_0_6 board_0_7 board_0_8))
(assert (distinct board_1_0 board_1_1 board_1_2 board_1_3 board_1_4 board_1_5 board_1_6 board_1_7 board_1_8))
(assert (distinct board_2_0 board_2_1 board_2_2 board_2_3 board_2_4 board_2_5 board_2_6 board_2_7 board_2_8))
(assert (distinct board_3_0 board_3_1 board_3_2 board_3_3 board_3_4 board_3_5 board_3_6 board_3_7 board_3_8))
(assert (distinct board_4_0 board_4_1 board_4_2 board_4_3 board_4_4 board_4_5 board_4_6 board_4_7 board_4_8))
(assert (distinct board_5_0 board_5_1 board_5_2 board_5_3 board_5_4 board_5_5 board_5_6 board_5_7 board_5_8))
(assert (distinct board_6_0 board_6_1 board_6_2 board_6_3 board_6_4 board_6_5 board_6_6 board_6_7 board_6_8))
(assert (distinct board_7_0 board_7_1 board_7_2 board_7_3 board_7_4 board_7_5 board_7_6 board_7_7 board_7_8))
(assert (distinct board_8_0 board_8_1 board_8_2 board_8_3 board_8_4 board_8_5 board_8_6 board_8_7 board_8_8))
(assert (distinct board_0_0 board_1_0 board_2_0 board_3_0 board_4_0 board_5_0 board_6_0 board_7_0 board_8_0))
(assert (distinct board_0_1 board_1_1 board_2_1 board_3_1 board_4_1 board_5_1 board_6_1 board_7_1 board_8_1))
(assert (distinct board_0_2 board_1_2 board_2_2 board_3_2 board_4_2 board_5_2 board_6_2 board_7_2 board_8_2))
(assert (distinct board_0_3 board_1_3 board_2_3 board_3_3 board_4_3 board_5_3 board_6_3 board_7_3 board_8_3))
(assert (distinct board_0_4 board_1_4 board_2_4 board_3_4 board_4_4 board_5_4 board_6_4 board_7_4 board_8_4))
(assert (distinct board_0_5 board_1_5 board_2_5 board_3_5 board_4_5 board_5_5 board_6_5 board_7_5 board_8_5))
(assert (distinct board_0_6 board_1_6 board_2_6 board_3_6 board_4_6 board_5_6 board_6_6 board_7_6 board_8_6))
(assert (distinct board_0_7 board_1_7 board_2_7 board_3_7 board_4_7 board_5_7 board_6_7 board_7_7 board_8_7))
(assert (distinct board_0_8 board_1_8 board_2_8 board_3_8 board_4_8 board_5_8 board_6_8 board_7_8 board_8_8))
(assert (distinct board_0_0 board_0_1 board_0_2 board_1_0 board_1_1 board_1_2 board_2_0 board_2_1 board_2_2))
(assert (distinct board_0_3 board_0_4 board_0_5 board_1_3 board_1_4 board_1_5 board_2_3 board_2_4 board_2_5))
(assert (distinct board_0_6 board_0_7 board_0_8 board_1_6 board_1_7 board_1_8 board_2_6 board_2_7 board_2_8))
(assert (distinct board_3_0 board_3_1 board_3_2 board_4_0 board_4_1 board_4_2 board_5_0 board_5_1 board_5_2))
(assert (distinct board_3_3 board_3_4 board_3_5 board_4_3 board_4_4 board_4_5 board_5_3 board_5_4 board_5_5))
(assert (distinct board_3_6 board_3_7 board_3_8 board_4_6 board_4_7 board_4_8 board_5_6 board_5_7 board_5_8))
(assert (distinct board_6_0 board_6_1 board_6_2 board_7_0 board_7_1 board_7_2 board_8_0 board_8_1 board_8_2))
(assert (distinct board_6_3 board_6_4 board_6_5 board_7_3 board_7_4 board_7_5 board_8_3 board_8_4 board_8_5))
(assert (distinct board_6_6 board_6_7 board_6_8 board_7_6 board_7_7 board_7_8 board_8_6 board_8_7 board_8_8))
(assert (= board_0_2 4))
(assert (= board_0_3 8))
(assert (= board_0_7 1))
(assert (= board_0_8 7))
(assert (= board_1_0 6))
(assert (= board_1_1 7))
(assert (= board_1_3 9))
(assert (= board_2_0 5))
(assert (= board_2_2 8))
(assert (= board_2_4 3))
(assert (= board_2_8 4))
(assert (= board_3_0 3))
(assert (= board_3_3 7))
(assert (= board_3_4 4))
(assert (= board_3_6 1))
(assert (= board_4_1 6))
(assert (= board_4_2 9))
(assert (= board_4_6 7))
(assert (= board_4_7 8))
(assert (= board_5_2 1))
(assert (= board_5_4 6))
(assert (= board_5_5 9))
(assert (= board_5_8 5))
(assert (= board_6_0 1))
(assert (= board_6_4 8))
(assert (= board_6_6 3))
(assert (= board_6_8 6))
(assert (= board_7_5 6))
(assert (= board_7_7 9))
(assert (= board_7_8 1))
(assert (= board_8_0 2))
(assert (= board_8_1 4))
(assert (= board_8_5 1))
(assert (= board_8_6 5))
(check-sat)
(get-model)